# Solution for model SUsp-010-StripPacking-25
# Objective value = 76
c[B0,0] 74
c[B0,1] 70
c[B1,0] 8
c[B1,1] 5.5
c[B2,0] 82.5
c[B2,1] 72.5
c[B3,0] 94.5
c[B3,1] 72
c[B4,0] 91
c[B4,1] 44
c[B5,0] 57
c[B5,1] 5.5
c[B6,0] 10
c[B6,1] 44
c[B7,0] 10
c[B7,1] 27.5
c[B8,0] 39
c[B8,1] 4.5
c[B9,0] 54
c[B9,1] 44
c[B10,0] 55
c[B10,1] 21.5
c[B11,0] 23.5
c[B11,1] 19.5
c[B12,0] 71.5
c[B12,1] 45.5
c[B13,0] 38
c[B13,1] 16.5
c[B14,0] 8
c[B14,1] 66.5
c[B15,0] 10.5
c[B15,1] 17
c[B16,0] 77.5
c[B16,1] 25
c[B17,0] 23
c[B17,1] 8
c[B18,0] 34.5
c[B18,1] 37.5
c[B19,0] 36.5
c[B19,1] 71
c[B20,0] 59
c[B20,1] 68
c[B21,0] 91.5
c[B21,1] 15
c[B22,0] 33.5
c[B22,1] 56.5
c[B23,0] 78
c[B23,1] 6.5
c[B24,0] 66
c[B24,1] 56
h 76
delta[B0,B1,0] 0
delta[B0,B1,1] 0
delta[B0,B2,0] 1
delta[B0,B2,1] 0
delta[B0,B3,0] 1
delta[B0,B3,1] 0
delta[B0,B4,0] 1
delta[B0,B4,1] 0
delta[B0,B5,0] 0
delta[B0,B5,1] 0
delta[B0,B6,0] 0
delta[B0,B6,1] 0
delta[B0,B7,0] 0
delta[B0,B7,1] 0
delta[B0,B8,0] 0
delta[B0,B8,1] 0
delta[B0,B9,0] 0
delta[B0,B9,1] 0
delta[B0,B10,0] 0
delta[B0,B10,1] 0
delta[B0,B11,0] 0
delta[B0,B11,1] 0
delta[B0,B12,0] 0
delta[B0,B12,1] 0
delta[B0,B13,0] 0
delta[B0,B13,1] 0
delta[B0,B14,0] 0
delta[B0,B14,1] 0
delta[B0,B15,0] 0
delta[B0,B15,1] 0
delta[B0,B16,0] 0
delta[B0,B16,1] 0
delta[B0,B17,0] 0
delta[B0,B17,1] 0
delta[B0,B18,0] 0
delta[B0,B18,1] 0
delta[B0,B19,0] 0
delta[B0,B19,1] 0
delta[B0,B20,0] 0
delta[B0,B20,1] 0
delta[B0,B21,0] 1
delta[B0,B21,1] 0
delta[B0,B22,0] 0
delta[B0,B22,1] 0
delta[B0,B23,0] 0
delta[B0,B23,1] 0
delta[B0,B24,0] 0
delta[B0,B24,1] 0
delta[B1,B0,0] 1
delta[B1,B0,1] 0
delta[B1,B2,0] 1
delta[B1,B2,1] 0
delta[B1,B3,0] 1
delta[B1,B3,1] 0
delta[B1,B4,0] 1
delta[B1,B4,1] 0
delta[B1,B5,0] 1
delta[B1,B5,1] 0
delta[B1,B6,0] 0
delta[B1,B6,1] 1
delta[B1,B7,0] 0
delta[B1,B7,1] 1
delta[B1,B8,0] 1
delta[B1,B8,1] 0
delta[B1,B9,0] 1
delta[B1,B9,1] 0
delta[B1,B10,0] 1
delta[B1,B10,1] 0
delta[B1,B11,0] 1
delta[B1,B11,1] 0
delta[B1,B12,0] 1
delta[B1,B12,1] 0
delta[B1,B13,0] 1
delta[B1,B13,1] 0
delta[B1,B14,0] 0
delta[B1,B14,1] 1
delta[B1,B15,0] 0
delta[B1,B15,1] 1
delta[B1,B16,0] 1
delta[B1,B16,1] 0
delta[B1,B17,0] 1
delta[B1,B17,1] 0
delta[B1,B18,0] 1
delta[B1,B18,1] 0
delta[B1,B19,0] 0
delta[B1,B19,1] 1
delta[B1,B20,0] 1
delta[B1,B20,1] 0
delta[B1,B21,0] 1
delta[B1,B21,1] 0
delta[B1,B22,0] 1
delta[B1,B22,1] 0
delta[B1,B23,0] 1
delta[B1,B23,1] 0
delta[B1,B24,0] 1
delta[B1,B24,1] 0
delta[B2,B0,0] 0
delta[B2,B0,1] 0
delta[B2,B1,0] 0
delta[B2,B1,1] 0
delta[B2,B3,0] 1
delta[B2,B3,1] 0
delta[B2,B4,0] 0
delta[B2,B4,1] 0
delta[B2,B5,0] 0
delta[B2,B5,1] 0
delta[B2,B6,0] 0
delta[B2,B6,1] 0
delta[B2,B7,0] 0
delta[B2,B7,1] 0
delta[B2,B8,0] 0
delta[B2,B8,1] 0
delta[B2,B9,0] 0
delta[B2,B9,1] 0
delta[B2,B10,0] 0
delta[B2,B10,1] 0
delta[B2,B11,0] 0
delta[B2,B11,1] 0
delta[B2,B12,0] 0
delta[B2,B12,1] 0
delta[B2,B13,0] 0
delta[B2,B13,1] 0
delta[B2,B14,0] 0
delta[B2,B14,1] 0
delta[B2,B15,0] 0
delta[B2,B15,1] 0
delta[B2,B16,0] 0
delta[B2,B16,1] 0
delta[B2,B17,0] 0
delta[B2,B17,1] 0
delta[B2,B18,0] 0
delta[B2,B18,1] 0
delta[B2,B19,0] 0
delta[B2,B19,1] 0
delta[B2,B20,0] 0
delta[B2,B20,1] 0
delta[B2,B21,0] 0
delta[B2,B21,1] 0
delta[B2,B22,0] 0
delta[B2,B22,1] 0
delta[B2,B23,0] 0
delta[B2,B23,1] 0
delta[B2,B24,0] 0
delta[B2,B24,1] 0
delta[B3,B0,0] 0
delta[B3,B0,1] 0
delta[B3,B1,0] 0
delta[B3,B1,1] 0
delta[B3,B2,0] 0
delta[B3,B2,1] 0
delta[B3,B4,0] 0
delta[B3,B4,1] 0
delta[B3,B5,0] 0
delta[B3,B5,1] 0
delta[B3,B6,0] 0
delta[B3,B6,1] 0
delta[B3,B7,0] 0
delta[B3,B7,1] 0
delta[B3,B8,0] 0
delta[B3,B8,1] 0
delta[B3,B9,0] 0
delta[B3,B9,1] 0
delta[B3,B10,0] 0
delta[B3,B10,1] 0
delta[B3,B11,0] 0
delta[B3,B11,1] 0
delta[B3,B12,0] 0
delta[B3,B12,1] 0
delta[B3,B13,0] 0
delta[B3,B13,1] 0
delta[B3,B14,0] 0
delta[B3,B14,1] 0
delta[B3,B15,0] 0
delta[B3,B15,1] 0
delta[B3,B16,0] 0
delta[B3,B16,1] 0
delta[B3,B17,0] 0
delta[B3,B17,1] 0
delta[B3,B18,0] 0
delta[B3,B18,1] 0
delta[B3,B19,0] 0
delta[B3,B19,1] 0
delta[B3,B20,0] 0
delta[B3,B20,1] 0
delta[B3,B21,0] 0
delta[B3,B21,1] 0
delta[B3,B22,0] 0
delta[B3,B22,1] 0
delta[B3,B23,0] 0
delta[B3,B23,1] 0
delta[B3,B24,0] 0
delta[B3,B24,1] 0
delta[B4,B0,0] 0
delta[B4,B0,1] 0
delta[B4,B1,0] 0
delta[B4,B1,1] 0
delta[B4,B2,0] 0
delta[B4,B2,1] 1
delta[B4,B3,0] 0
delta[B4,B3,1] 1
delta[B4,B5,0] 0
delta[B4,B5,1] 0
delta[B4,B6,0] 0
delta[B4,B6,1] 0
delta[B4,B7,0] 0
delta[B4,B7,1] 0
delta[B4,B8,0] 0
delta[B4,B8,1] 0
delta[B4,B9,0] 0
delta[B4,B9,1] 0
delta[B4,B10,0] 0
delta[B4,B10,1] 0
delta[B4,B11,0] 0
delta[B4,B11,1] 0
delta[B4,B12,0] 0
delta[B4,B12,1] 0
delta[B4,B13,0] 0
delta[B4,B13,1] 0
delta[B4,B14,0] 0
delta[B4,B14,1] 0
delta[B4,B15,0] 0
delta[B4,B15,1] 0
delta[B4,B16,0] 0
delta[B4,B16,1] 0
delta[B4,B17,0] 0
delta[B4,B17,1] 0
delta[B4,B18,0] 0
delta[B4,B18,1] 0
delta[B4,B19,0] 0
delta[B4,B19,1] 0
delta[B4,B20,0] 0
delta[B4,B20,1] 0
delta[B4,B21,0] 0
delta[B4,B21,1] 0
delta[B4,B22,0] 0
delta[B4,B22,1] 0
delta[B4,B23,0] 0
delta[B4,B23,1] 0
delta[B4,B24,0] 0
delta[B4,B24,1] 0
delta[B5,B0,0] 0
delta[B5,B0,1] 1
delta[B5,B1,0] 0
delta[B5,B1,1] 0
delta[B5,B2,0] 0
delta[B5,B2,1] 1
delta[B5,B3,0] 1
delta[B5,B3,1] 0
delta[B5,B4,0] 1
delta[B5,B4,1] 0
delta[B5,B6,0] 0
delta[B5,B6,1] 0
delta[B5,B7,0] 0
delta[B5,B7,1] 0
delta[B5,B8,0] 0
delta[B5,B8,1] 0
delta[B5,B9,0] 0
delta[B5,B9,1] 1
delta[B5,B10,0] 0
delta[B5,B10,1] 1
delta[B5,B11,0] 0
delta[B5,B11,1] 0
delta[B5,B12,0] 0
delta[B5,B12,1] 1
delta[B5,B13,0] 0
delta[B5,B13,1] 0
delta[B5,B14,0] 0
delta[B5,B14,1] 0
delta[B5,B15,0] 0
delta[B5,B15,1] 0
delta[B5,B16,0] 1
delta[B5,B16,1] 0
delta[B5,B17,0] 0
delta[B5,B17,1] 0
delta[B5,B18,0] 0
delta[B5,B18,1] 0
delta[B5,B19,0] 0
delta[B5,B19,1] 1
delta[B5,B20,0] 0
delta[B5,B20,1] 1
delta[B5,B21,0] 1
delta[B5,B21,1] 0
delta[B5,B22,0] 0
delta[B5,B22,1] 0
delta[B5,B23,0] 1
delta[B5,B23,1] 0
delta[B5,B24,0] 0
delta[B5,B24,1] 1
delta[B6,B0,0] 1
delta[B6,B0,1] 0
delta[B6,B1,0] 0
delta[B6,B1,1] 0
delta[B6,B2,0] 1
delta[B6,B2,1] 0
delta[B6,B3,0] 1
delta[B6,B3,1] 0
delta[B6,B4,0] 1
delta[B6,B4,1] 0
delta[B6,B5,0] 1
delta[B6,B5,1] 0
delta[B6,B7,0] 0
delta[B6,B7,1] 0
delta[B6,B8,0] 0
delta[B6,B8,1] 0
delta[B6,B9,0] 1
delta[B6,B9,1] 0
delta[B6,B10,0] 1
delta[B6,B10,1] 0
delta[B6,B11,0] 0
delta[B6,B11,1] 0
delta[B6,B12,0] 1
delta[B6,B12,1] 0
delta[B6,B13,0] 1
delta[B6,B13,1] 0
delta[B6,B14,0] 0
delta[B6,B14,1] 1
delta[B6,B15,0] 0
delta[B6,B15,1] 0
delta[B6,B16,0] 1
delta[B6,B16,1] 0
delta[B6,B17,0] 0
delta[B6,B17,1] 0
delta[B6,B18,0] 1
delta[B6,B18,1] 0
delta[B6,B19,0] 1
delta[B6,B19,1] 0
delta[B6,B20,0] 1
delta[B6,B20,1] 0
delta[B6,B21,0] 1
delta[B6,B21,1] 0
delta[B6,B22,0] 1
delta[B6,B22,1] 0
delta[B6,B23,0] 1
delta[B6,B23,1] 0
delta[B6,B24,0] 1
delta[B6,B24,1] 0
delta[B7,B0,0] 1
delta[B7,B0,1] 0
delta[B7,B1,0] 0
delta[B7,B1,1] 0
delta[B7,B2,0] 1
delta[B7,B2,1] 0
delta[B7,B3,0] 1
delta[B7,B3,1] 0
delta[B7,B4,0] 1
delta[B7,B4,1] 0
delta[B7,B5,0] 1
delta[B7,B5,1] 0
delta[B7,B6,0] 0
delta[B7,B6,1] 1
delta[B7,B8,0] 0
delta[B7,B8,1] 0
delta[B7,B9,0] 1
delta[B7,B9,1] 0
delta[B7,B10,0] 1
delta[B7,B10,1] 0
delta[B7,B11,0] 0
delta[B7,B11,1] 0
delta[B7,B12,0] 1
delta[B7,B12,1] 0
delta[B7,B13,0] 1
delta[B7,B13,1] 0
delta[B7,B14,0] 0
delta[B7,B14,1] 1
delta[B7,B15,0] 0
delta[B7,B15,1] 0
delta[B7,B16,0] 1
delta[B7,B16,1] 0
delta[B7,B17,0] 0
delta[B7,B17,1] 0
delta[B7,B18,0] 1
delta[B7,B18,1] 0
delta[B7,B19,0] 1
delta[B7,B19,1] 0
delta[B7,B20,0] 1
delta[B7,B20,1] 0
delta[B7,B21,0] 1
delta[B7,B21,1] 0
delta[B7,B22,0] 1
delta[B7,B22,1] 0
delta[B7,B23,0] 1
delta[B7,B23,1] 0
delta[B7,B24,0] 1
delta[B7,B24,1] 0
delta[B8,B0,0] 0
delta[B8,B0,1] 1
delta[B8,B1,0] 0
delta[B8,B1,1] 0
delta[B8,B2,0] 0
delta[B8,B2,1] 1
delta[B8,B3,0] 1
delta[B8,B3,1] 0
delta[B8,B4,0] 1
delta[B8,B4,1] 0
delta[B8,B5,0] 1
delta[B8,B5,1] 0
delta[B8,B6,0] 0
delta[B8,B6,1] 1
delta[B8,B7,0] 0
delta[B8,B7,1] 1
delta[B8,B9,0] 0
delta[B8,B9,1] 1
delta[B8,B10,0] 1
delta[B8,B10,1] 0
delta[B8,B11,0] 0
delta[B8,B11,1] 1
delta[B8,B12,0] 0
delta[B8,B12,1] 1
delta[B8,B13,0] 0
delta[B8,B13,1] 1
delta[B8,B14,0] 0
delta[B8,B14,1] 1
delta[B8,B15,0] 0
delta[B8,B15,1] 0
delta[B8,B16,0] 1
delta[B8,B16,1] 0
delta[B8,B17,0] 0
delta[B8,B17,1] 0
delta[B8,B18,0] 0
delta[B8,B18,1] 1
delta[B8,B19,0] 0
delta[B8,B19,1] 1
delta[B8,B20,0] 0
delta[B8,B20,1] 1
delta[B8,B21,0] 1
delta[B8,B21,1] 0
delta[B8,B22,0] 0
delta[B8,B22,1] 1
delta[B8,B23,0] 1
delta[B8,B23,1] 0
delta[B8,B24,0] 0
delta[B8,B24,1] 1
delta[B9,B0,0] 0
delta[B9,B0,1] 1
delta[B9,B1,0] 0
delta[B9,B1,1] 0
delta[B9,B2,0] 0
delta[B9,B2,1] 1
delta[B9,B3,0] 1
delta[B9,B3,1] 0
delta[B9,B4,0] 1
delta[B9,B4,1] 0
delta[B9,B5,0] 0
delta[B9,B5,1] 0
delta[B9,B6,0] 0
delta[B9,B6,1] 0
delta[B9,B7,0] 0
delta[B9,B7,1] 0
delta[B9,B8,0] 0
delta[B9,B8,1] 0
delta[B9,B10,0] 0
delta[B9,B10,1] 0
delta[B9,B11,0] 0
delta[B9,B11,1] 0
delta[B9,B12,0] 1
delta[B9,B12,1] 0
delta[B9,B13,0] 0
delta[B9,B13,1] 0
delta[B9,B14,0] 0
delta[B9,B14,1] 0
delta[B9,B15,0] 0
delta[B9,B15,1] 0
delta[B9,B16,0] 1
delta[B9,B16,1] 0
delta[B9,B17,0] 0
delta[B9,B17,1] 0
delta[B9,B18,0] 0
delta[B9,B18,1] 0
delta[B9,B19,0] 0
delta[B9,B19,1] 1
delta[B9,B20,0] 0
delta[B9,B20,1] 1
delta[B9,B21,0] 1
delta[B9,B21,1] 0
delta[B9,B22,0] 0
delta[B9,B22,1] 0
delta[B9,B23,0] 1
delta[B9,B23,1] 0
delta[B9,B24,0] 0
delta[B9,B24,1] 1
delta[B10,B0,0] 0
delta[B10,B0,1] 1
delta[B10,B1,0] 0
delta[B10,B1,1] 0
delta[B10,B2,0] 0
delta[B10,B2,1] 1
delta[B10,B3,0] 1
delta[B10,B3,1] 0
delta[B10,B4,0] 1
delta[B10,B4,1] 0
delta[B10,B5,0] 0
delta[B10,B5,1] 0
delta[B10,B6,0] 0
delta[B10,B6,1] 0
delta[B10,B7,0] 0
delta[B10,B7,1] 0
delta[B10,B8,0] 0
delta[B10,B8,1] 0
delta[B10,B9,0] 0
delta[B10,B9,1] 1
delta[B10,B11,0] 0
delta[B10,B11,1] 0
delta[B10,B12,0] 0
delta[B10,B12,1] 1
delta[B10,B13,0] 0
delta[B10,B13,1] 0
delta[B10,B14,0] 0
delta[B10,B14,1] 0
delta[B10,B15,0] 0
delta[B10,B15,1] 0
delta[B10,B16,0] 1
delta[B10,B16,1] 0
delta[B10,B17,0] 0
delta[B10,B17,1] 0
delta[B10,B18,0] 0
delta[B10,B18,1] 0
delta[B10,B19,0] 0
delta[B10,B19,1] 1
delta[B10,B20,0] 0
delta[B10,B20,1] 1
delta[B10,B21,0] 1
delta[B10,B21,1] 0
delta[B10,B22,0] 0
delta[B10,B22,1] 0
delta[B10,B23,0] 1
delta[B10,B23,1] 0
delta[B10,B24,0] 0
delta[B10,B24,1] 1
delta[B11,B0,0] 0
delta[B11,B0,1] 1
delta[B11,B1,0] 0
delta[B11,B1,1] 0
delta[B11,B2,0] 0
delta[B11,B2,1] 1
delta[B11,B3,0] 1
delta[B11,B3,1] 0
delta[B11,B4,0] 1
delta[B11,B4,1] 0
delta[B11,B5,0] 1
delta[B11,B5,1] 0
delta[B11,B6,0] 0
delta[B11,B6,1] 1
delta[B11,B7,0] 0
delta[B11,B7,1] 1
delta[B11,B8,0] 0
delta[B11,B8,1] 0
delta[B11,B9,0] 1
delta[B11,B9,1] 0
delta[B11,B10,0] 1
delta[B11,B10,1] 0
delta[B11,B12,0] 1
delta[B11,B12,1] 0
delta[B11,B13,0] 1
delta[B11,B13,1] 0
delta[B11,B14,0] 0
delta[B11,B14,1] 1
delta[B11,B15,0] 0
delta[B11,B15,1] 0
delta[B11,B16,0] 1
delta[B11,B16,1] 0
delta[B11,B17,0] 0
delta[B11,B17,1] 0
delta[B11,B18,0] 0
delta[B11,B18,1] 1
delta[B11,B19,0] 0
delta[B11,B19,1] 1
delta[B11,B20,0] 0
delta[B11,B20,1] 1
delta[B11,B21,0] 1
delta[B11,B21,1] 0
delta[B11,B22,0] 0
delta[B11,B22,1] 1
delta[B11,B23,0] 1
delta[B11,B23,1] 0
delta[B11,B24,0] 1
delta[B11,B24,1] 0
delta[B12,B0,0] 0
delta[B12,B0,1] 1
delta[B12,B1,0] 0
delta[B12,B1,1] 0
delta[B12,B2,0] 0
delta[B12,B2,1] 1
delta[B12,B3,0] 1
delta[B12,B3,1] 0
delta[B12,B4,0] 1
delta[B12,B4,1] 0
delta[B12,B5,0] 0
delta[B12,B5,1] 0
delta[B12,B6,0] 0
delta[B12,B6,1] 0
delta[B12,B7,0] 0
delta[B12,B7,1] 0
delta[B12,B8,0] 0
delta[B12,B8,1] 0
delta[B12,B9,0] 0
delta[B12,B9,1] 0
delta[B12,B10,0] 0
delta[B12,B10,1] 0
delta[B12,B11,0] 0
delta[B12,B11,1] 0
delta[B12,B13,0] 0
delta[B12,B13,1] 0
delta[B12,B14,0] 0
delta[B12,B14,1] 0
delta[B12,B15,0] 0
delta[B12,B15,1] 0
delta[B12,B16,0] 0
delta[B12,B16,1] 0
delta[B12,B17,0] 0
delta[B12,B17,1] 0
delta[B12,B18,0] 0
delta[B12,B18,1] 0
delta[B12,B19,0] 0
delta[B12,B19,1] 0
delta[B12,B20,0] 0
delta[B12,B20,1] 1
delta[B12,B21,0] 1
delta[B12,B21,1] 0
delta[B12,B22,0] 0
delta[B12,B22,1] 0
delta[B12,B23,0] 0
delta[B12,B23,1] 0
delta[B12,B24,0] 0
delta[B12,B24,1] 1
delta[B13,B0,0] 0
delta[B13,B0,1] 1
delta[B13,B1,0] 0
delta[B13,B1,1] 0
delta[B13,B2,0] 0
delta[B13,B2,1] 1
delta[B13,B3,0] 1
delta[B13,B3,1] 0
delta[B13,B4,0] 1
delta[B13,B4,1] 0
delta[B13,B5,0] 1
delta[B13,B5,1] 0
delta[B13,B6,0] 0
delta[B13,B6,1] 0
delta[B13,B7,0] 0
delta[B13,B7,1] 0
delta[B13,B8,0] 0
delta[B13,B8,1] 0
delta[B13,B9,0] 0
delta[B13,B9,1] 1
delta[B13,B10,0] 1
delta[B13,B10,1] 0
delta[B13,B11,0] 0
delta[B13,B11,1] 0
delta[B13,B12,0] 1
delta[B13,B12,1] 0
delta[B13,B14,0] 0
delta[B13,B14,1] 1
delta[B13,B15,0] 0
delta[B13,B15,1] 0
delta[B13,B16,0] 1
delta[B13,B16,1] 0
delta[B13,B17,0] 0
delta[B13,B17,1] 0
delta[B13,B18,0] 0
delta[B13,B18,1] 1
delta[B13,B19,0] 0
delta[B13,B19,1] 1
delta[B13,B20,0] 0
delta[B13,B20,1] 1
delta[B13,B21,0] 1
delta[B13,B21,1] 0
delta[B13,B22,0] 0
delta[B13,B22,1] 1
delta[B13,B23,0] 1
delta[B13,B23,1] 0
delta[B13,B24,0] 0
delta[B13,B24,1] 1
delta[B14,B0,0] 1
delta[B14,B0,1] 0
delta[B14,B1,0] 0
delta[B14,B1,1] 0
delta[B14,B2,0] 1
delta[B14,B2,1] 0
delta[B14,B3,0] 1
delta[B14,B3,1] 0
delta[B14,B4,0] 1
delta[B14,B4,1] 0
delta[B14,B5,0] 1
delta[B14,B5,1] 0
delta[B14,B6,0] 0
delta[B14,B6,1] 0
delta[B14,B7,0] 0
delta[B14,B7,1] 0
delta[B14,B8,0] 0
delta[B14,B8,1] 0
delta[B14,B9,0] 1
delta[B14,B9,1] 0
delta[B14,B10,0] 1
delta[B14,B10,1] 0
delta[B14,B11,0] 0
delta[B14,B11,1] 0
delta[B14,B12,0] 1
delta[B14,B12,1] 0
delta[B14,B13,0] 0
delta[B14,B13,1] 0
delta[B14,B15,0] 0
delta[B14,B15,1] 0
delta[B14,B16,0] 1
delta[B14,B16,1] 0
delta[B14,B17,0] 0
delta[B14,B17,1] 0
delta[B14,B18,0] 0
delta[B14,B18,1] 0
delta[B14,B19,0] 1
delta[B14,B19,1] 0
delta[B14,B20,0] 1
delta[B14,B20,1] 0
delta[B14,B21,0] 1
delta[B14,B21,1] 0
delta[B14,B22,0] 1
delta[B14,B22,1] 0
delta[B14,B23,0] 1
delta[B14,B23,1] 0
delta[B14,B24,0] 1
delta[B14,B24,1] 0
delta[B15,B0,0] 1
delta[B15,B0,1] 0
delta[B15,B1,0] 0
delta[B15,B1,1] 0
delta[B15,B2,0] 1
delta[B15,B2,1] 0
delta[B15,B3,0] 1
delta[B15,B3,1] 0
delta[B15,B4,0] 1
delta[B15,B4,1] 0
delta[B15,B5,0] 1
delta[B15,B5,1] 0
delta[B15,B6,0] 0
delta[B15,B6,1] 1
delta[B15,B7,0] 0
delta[B15,B7,1] 1
delta[B15,B8,0] 1
delta[B15,B8,1] 0
delta[B15,B9,0] 1
delta[B15,B9,1] 0
delta[B15,B10,0] 1
delta[B15,B10,1] 0
delta[B15,B11,0] 1
delta[B15,B11,1] 0
delta[B15,B12,0] 1
delta[B15,B12,1] 0
delta[B15,B13,0] 1
delta[B15,B13,1] 0
delta[B15,B14,0] 0
delta[B15,B14,1] 1
delta[B15,B16,0] 1
delta[B15,B16,1] 0
delta[B15,B17,0] 1
delta[B15,B17,1] 0
delta[B15,B18,0] 1
delta[B15,B18,1] 0
delta[B15,B19,0] 0
delta[B15,B19,1] 1
delta[B15,B20,0] 1
delta[B15,B20,1] 0
delta[B15,B21,0] 1
delta[B15,B21,1] 0
delta[B15,B22,0] 1
delta[B15,B22,1] 0
delta[B15,B23,0] 1
delta[B15,B23,1] 0
delta[B15,B24,0] 1
delta[B15,B24,1] 0
delta[B16,B0,0] 0
delta[B16,B0,1] 1
delta[B16,B1,0] 0
delta[B16,B1,1] 0
delta[B16,B2,0] 0
delta[B16,B2,1] 1
delta[B16,B3,0] 1
delta[B16,B3,1] 0
delta[B16,B4,0] 1
delta[B16,B4,1] 0
delta[B16,B5,0] 0
delta[B16,B5,1] 0
delta[B16,B6,0] 0
delta[B16,B6,1] 0
delta[B16,B7,0] 0
delta[B16,B7,1] 0
delta[B16,B8,0] 0
delta[B16,B8,1] 0
delta[B16,B9,0] 0
delta[B16,B9,1] 0
delta[B16,B10,0] 0
delta[B16,B10,1] 0
delta[B16,B11,0] 0
delta[B16,B11,1] 0
delta[B16,B12,0] 0
delta[B16,B12,1] 1
delta[B16,B13,0] 0
delta[B16,B13,1] 0
delta[B16,B14,0] 0
delta[B16,B14,1] 0
delta[B16,B15,0] 0
delta[B16,B15,1] 0
delta[B16,B17,0] 0
delta[B16,B17,1] 0
delta[B16,B18,0] 0
delta[B16,B18,1] 0
delta[B16,B19,0] 0
delta[B16,B19,1] 1
delta[B16,B20,0] 0
delta[B16,B20,1] 1
delta[B16,B21,0] 1
delta[B16,B21,1] 0
delta[B16,B22,0] 0
delta[B16,B22,1] 0
delta[B16,B23,0] 0
delta[B16,B23,1] 0
delta[B16,B24,0] 0
delta[B16,B24,1] 1
delta[B17,B0,0] 0
delta[B17,B0,1] 1
delta[B17,B1,0] 0
delta[B17,B1,1] 0
delta[B17,B2,0] 0
delta[B17,B2,1] 1
delta[B17,B3,0] 1
delta[B17,B3,1] 0
delta[B17,B4,0] 1
delta[B17,B4,1] 0
delta[B17,B5,0] 1
delta[B17,B5,1] 0
delta[B17,B6,0] 0
delta[B17,B6,1] 1
delta[B17,B7,0] 0
delta[B17,B7,1] 1
delta[B17,B8,0] 1
delta[B17,B8,1] 0
delta[B17,B9,0] 1
delta[B17,B9,1] 0
delta[B17,B10,0] 1
delta[B17,B10,1] 0
delta[B17,B11,0] 0
delta[B17,B11,1] 1
delta[B17,B12,0] 1
delta[B17,B12,1] 0
delta[B17,B13,0] 1
delta[B17,B13,1] 0
delta[B17,B14,0] 0
delta[B17,B14,1] 1
delta[B17,B15,0] 0
delta[B17,B15,1] 0
delta[B17,B16,0] 1
delta[B17,B16,1] 0
delta[B17,B18,0] 0
delta[B17,B18,1] 1
delta[B17,B19,0] 0
delta[B17,B19,1] 1
delta[B17,B20,0] 0
delta[B17,B20,1] 1
delta[B17,B21,0] 1
delta[B17,B21,1] 0
delta[B17,B22,0] 0
delta[B17,B22,1] 1
delta[B17,B23,0] 1
delta[B17,B23,1] 0
delta[B17,B24,0] 1
delta[B17,B24,1] 0
delta[B18,B0,0] 0
delta[B18,B0,1] 1
delta[B18,B1,0] 0
delta[B18,B1,1] 0
delta[B18,B2,0] 0
delta[B18,B2,1] 1
delta[B18,B3,0] 1
delta[B18,B3,1] 0
delta[B18,B4,0] 1
delta[B18,B4,1] 0
delta[B18,B5,0] 1
delta[B18,B5,1] 0
delta[B18,B6,0] 0
delta[B18,B6,1] 0
delta[B18,B7,0] 0
delta[B18,B7,1] 0
delta[B18,B8,0] 0
delta[B18,B8,1] 0
delta[B18,B9,0] 1
delta[B18,B9,1] 0
delta[B18,B10,0] 1
delta[B18,B10,1] 0
delta[B18,B11,0] 0
delta[B18,B11,1] 0
delta[B18,B12,0] 1
delta[B18,B12,1] 0
delta[B18,B13,0] 0
delta[B18,B13,1] 0
delta[B18,B14,0] 0
delta[B18,B14,1] 1
delta[B18,B15,0] 0
delta[B18,B15,1] 0
delta[B18,B16,0] 1
delta[B18,B16,1] 0
delta[B18,B17,0] 0
delta[B18,B17,1] 0
delta[B18,B19,0] 0
delta[B18,B19,1] 1
delta[B18,B20,0] 0
delta[B18,B20,1] 1
delta[B18,B21,0] 1
delta[B18,B21,1] 0
delta[B18,B22,0] 0
delta[B18,B22,1] 1
delta[B18,B23,0] 1
delta[B18,B23,1] 0
delta[B18,B24,0] 1
delta[B18,B24,1] 0
delta[B19,B0,0] 1
delta[B19,B0,1] 0
delta[B19,B1,0] 0
delta[B19,B1,1] 0
delta[B19,B2,0] 1
delta[B19,B2,1] 0
delta[B19,B3,0] 1
delta[B19,B3,1] 0
delta[B19,B4,0] 1
delta[B19,B4,1] 0
delta[B19,B5,0] 0
delta[B19,B5,1] 0
delta[B19,B6,0] 0
delta[B19,B6,1] 0
delta[B19,B7,0] 0
delta[B19,B7,1] 0
delta[B19,B8,0] 0
delta[B19,B8,1] 0
delta[B19,B9,0] 0
delta[B19,B9,1] 0
delta[B19,B10,0] 0
delta[B19,B10,1] 0
delta[B19,B11,0] 0
delta[B19,B11,1] 0
delta[B19,B12,0] 1
delta[B19,B12,1] 0
delta[B19,B13,0] 0
delta[B19,B13,1] 0
delta[B19,B14,0] 0
delta[B19,B14,1] 0
delta[B19,B15,0] 0
delta[B19,B15,1] 0
delta[B19,B16,0] 0
delta[B19,B16,1] 0
delta[B19,B17,0] 0
delta[B19,B17,1] 0
delta[B19,B18,0] 0
delta[B19,B18,1] 0
delta[B19,B20,0] 1
delta[B19,B20,1] 0
delta[B19,B21,0] 1
delta[B19,B21,1] 0
delta[B19,B22,0] 0
delta[B19,B22,1] 0
delta[B19,B23,0] 0
delta[B19,B23,1] 0
delta[B19,B24,0] 1
delta[B19,B24,1] 0
delta[B20,B0,0] 1
delta[B20,B0,1] 0
delta[B20,B1,0] 0
delta[B20,B1,1] 0
delta[B20,B2,0] 1
delta[B20,B2,1] 0
delta[B20,B3,0] 1
delta[B20,B3,1] 0
delta[B20,B4,0] 1
delta[B20,B4,1] 0
delta[B20,B5,0] 0
delta[B20,B5,1] 0
delta[B20,B6,0] 0
delta[B20,B6,1] 0
delta[B20,B7,0] 0
delta[B20,B7,1] 0
delta[B20,B8,0] 0
delta[B20,B8,1] 0
delta[B20,B9,0] 0
delta[B20,B9,1] 0
delta[B20,B10,0] 0
delta[B20,B10,1] 0
delta[B20,B11,0] 0
delta[B20,B11,1] 0
delta[B20,B12,0] 0
delta[B20,B12,1] 0
delta[B20,B13,0] 0
delta[B20,B13,1] 0
delta[B20,B14,0] 0
delta[B20,B14,1] 0
delta[B20,B15,0] 0
delta[B20,B15,1] 0
delta[B20,B16,0] 0
delta[B20,B16,1] 0
delta[B20,B17,0] 0
delta[B20,B17,1] 0
delta[B20,B18,0] 0
delta[B20,B18,1] 0
delta[B20,B19,0] 0
delta[B20,B19,1] 0
delta[B20,B21,0] 1
delta[B20,B21,1] 0
delta[B20,B22,0] 0
delta[B20,B22,1] 0
delta[B20,B23,0] 0
delta[B20,B23,1] 0
delta[B20,B24,0] 0
delta[B20,B24,1] 0
delta[B21,B0,0] 0
delta[B21,B0,1] 0
delta[B21,B1,0] 0
delta[B21,B1,1] 0
delta[B21,B2,0] 0
delta[B21,B2,1] 1
delta[B21,B3,0] 0
delta[B21,B3,1] 1
delta[B21,B4,0] 0
delta[B21,B4,1] 1
delta[B21,B5,0] 0
delta[B21,B5,1] 0
delta[B21,B6,0] 0
delta[B21,B6,1] 0
delta[B21,B7,0] 0
delta[B21,B7,1] 0
delta[B21,B8,0] 0
delta[B21,B8,1] 0
delta[B21,B9,0] 0
delta[B21,B9,1] 0
delta[B21,B10,0] 0
delta[B21,B10,1] 0
delta[B21,B11,0] 0
delta[B21,B11,1] 0
delta[B21,B12,0] 0
delta[B21,B12,1] 0
delta[B21,B13,0] 0
delta[B21,B13,1] 0
delta[B21,B14,0] 0
delta[B21,B14,1] 0
delta[B21,B15,0] 0
delta[B21,B15,1] 0
delta[B21,B16,0] 0
delta[B21,B16,1] 0
delta[B21,B17,0] 0
delta[B21,B17,1] 0
delta[B21,B18,0] 0
delta[B21,B18,1] 0
delta[B21,B19,0] 0
delta[B21,B19,1] 0
delta[B21,B20,0] 0
delta[B21,B20,1] 0
delta[B21,B22,0] 0
delta[B21,B22,1] 0
delta[B21,B23,0] 0
delta[B21,B23,1] 0
delta[B21,B24,0] 0
delta[B21,B24,1] 0
delta[B22,B0,0] 1
delta[B22,B0,1] 0
delta[B22,B1,0] 0
delta[B22,B1,1] 0
delta[B22,B2,0] 1
delta[B22,B2,1] 0
delta[B22,B3,0] 1
delta[B22,B3,1] 0
delta[B22,B4,0] 1
delta[B22,B4,1] 0
delta[B22,B5,0] 1
delta[B22,B5,1] 0
delta[B22,B6,0] 0
delta[B22,B6,1] 0
delta[B22,B7,0] 0
delta[B22,B7,1] 0
delta[B22,B8,0] 0
delta[B22,B8,1] 0
delta[B22,B9,0] 1
delta[B22,B9,1] 0
delta[B22,B10,0] 1
delta[B22,B10,1] 0
delta[B22,B11,0] 0
delta[B22,B11,1] 0
delta[B22,B12,0] 1
delta[B22,B12,1] 0
delta[B22,B13,0] 0
delta[B22,B13,1] 0
delta[B22,B14,0] 0
delta[B22,B14,1] 0
delta[B22,B15,0] 0
delta[B22,B15,1] 0
delta[B22,B16,0] 1
delta[B22,B16,1] 0
delta[B22,B17,0] 0
delta[B22,B17,1] 0
delta[B22,B18,0] 0
delta[B22,B18,1] 0
delta[B22,B19,0] 0
delta[B22,B19,1] 1
delta[B22,B20,0] 1
delta[B22,B20,1] 0
delta[B22,B21,0] 1
delta[B22,B21,1] 0
delta[B22,B23,0] 1
delta[B22,B23,1] 0
delta[B22,B24,0] 1
delta[B22,B24,1] 0
delta[B23,B0,0] 0
delta[B23,B0,1] 1
delta[B23,B1,0] 0
delta[B23,B1,1] 0
delta[B23,B2,0] 0
delta[B23,B2,1] 1
delta[B23,B3,0] 0
delta[B23,B3,1] 1
delta[B23,B4,0] 1
delta[B23,B4,1] 0
delta[B23,B5,0] 0
delta[B23,B5,1] 0
delta[B23,B6,0] 0
delta[B23,B6,1] 0
delta[B23,B7,0] 0
delta[B23,B7,1] 0
delta[B23,B8,0] 0
delta[B23,B8,1] 0
delta[B23,B9,0] 0
delta[B23,B9,1] 0
delta[B23,B10,0] 0
delta[B23,B10,1] 0
delta[B23,B11,0] 0
delta[B23,B11,1] 0
delta[B23,B12,0] 0
delta[B23,B12,1] 1
delta[B23,B13,0] 0
delta[B23,B13,1] 0
delta[B23,B14,0] 0
delta[B23,B14,1] 0
delta[B23,B15,0] 0
delta[B23,B15,1] 0
delta[B23,B16,0] 0
delta[B23,B16,1] 1
delta[B23,B17,0] 0
delta[B23,B17,1] 0
delta[B23,B18,0] 0
delta[B23,B18,1] 0
delta[B23,B19,0] 0
delta[B23,B19,1] 1
delta[B23,B20,0] 0
delta[B23,B20,1] 1
delta[B23,B21,0] 1
delta[B23,B21,1] 0
delta[B23,B22,0] 0
delta[B23,B22,1] 0
delta[B23,B24,0] 0
delta[B23,B24,1] 1
delta[B24,B0,0] 0
delta[B24,B0,1] 1
delta[B24,B1,0] 0
delta[B24,B1,1] 0
delta[B24,B2,0] 0
delta[B24,B2,1] 1
delta[B24,B3,0] 1
delta[B24,B3,1] 0
delta[B24,B4,0] 1
delta[B24,B4,1] 0
delta[B24,B5,0] 0
delta[B24,B5,1] 0
delta[B24,B6,0] 0
delta[B24,B6,1] 0
delta[B24,B7,0] 0
delta[B24,B7,1] 0
delta[B24,B8,0] 0
delta[B24,B8,1] 0
delta[B24,B9,0] 0
delta[B24,B9,1] 0
delta[B24,B10,0] 0
delta[B24,B10,1] 0
delta[B24,B11,0] 0
delta[B24,B11,1] 0
delta[B24,B12,0] 0
delta[B24,B12,1] 0
delta[B24,B13,0] 0
delta[B24,B13,1] 0
delta[B24,B14,0] 0
delta[B24,B14,1] 0
delta[B24,B15,0] 0
delta[B24,B15,1] 0
delta[B24,B16,0] 0
delta[B24,B16,1] 0
delta[B24,B17,0] 0
delta[B24,B17,1] 0
delta[B24,B18,0] 0
delta[B24,B18,1] 0
delta[B24,B19,0] 0
delta[B24,B19,1] 0
delta[B24,B20,0] 0
delta[B24,B20,1] 1
delta[B24,B21,0] 1
delta[B24,B21,1] 0
delta[B24,B22,0] 0
delta[B24,B22,1] 0
delta[B24,B23,0] 0
delta[B24,B23,1] 0
